jobs  (incl. supersource/sink ):	52
RESOURCES
- renewable                 : 2 R
- nonrenewable              : 2 N
- doubly constrained        : 0 D
************************************************************************
PRECEDENCE RELATIONS:
jobnr.    #modes  #successors   successors
1	1	8		2 3 4 6 7 8 12 13 
2	9	6		20 18 14 10 9 5 
3	9	9		31 29 26 24 23 19 18 15 11 
4	9	7		29 23 22 19 17 15 14 
5	9	9		51 27 26 25 24 23 22 21 19 
6	9	6		37 31 29 21 17 14 
7	9	5		26 24 21 19 16 
8	9	5		37 29 21 17 14 
9	9	6		37 29 27 25 23 19 
10	9	6		51 30 29 26 24 21 
11	9	6		37 36 35 34 28 17 
12	9	6		51 37 36 34 28 17 
13	9	5		51 36 35 34 17 
14	9	7		51 36 34 30 28 27 24 
15	9	5		51 50 37 28 21 
16	9	8		51 49 37 35 34 31 29 23 
17	9	4		49 30 27 25 
18	9	11		50 49 43 42 41 40 39 35 34 33 32 
19	9	6		43 42 35 34 30 28 
20	9	12		50 49 48 47 42 41 40 39 38 37 34 33 
21	9	9		43 42 41 40 39 36 35 34 32 
22	9	8		49 43 39 38 36 35 33 31 
23	9	8		48 42 41 40 39 38 36 33 
24	9	7		48 43 41 40 39 38 35 
25	9	6		47 43 41 40 33 32 
26	9	6		50 49 47 37 33 32 
27	9	7		50 47 42 40 39 38 33 
28	9	6		49 48 40 39 38 33 
29	9	5		48 47 42 39 33 
30	9	4		48 41 38 33 
31	9	5		48 47 46 45 44 
32	9	3		48 44 38 
33	9	2		45 44 
34	9	2		45 44 
35	9	2		47 46 
36	9	2		47 44 
37	9	2		45 44 
38	9	1		46 
39	9	1		45 
40	9	1		46 
41	9	1		45 
42	9	1		46 
43	9	1		44 
44	9	1		52 
45	9	1		52 
46	9	1		52 
47	9	1		52 
48	9	1		52 
49	9	1		52 
50	9	1		52 
51	9	1		52 
52	1	0		
************************************************************************
REQUESTS/DURATIONS
jobnr.	mode	dur	R1	R2	N1	N2	
------------------------------------------------------------------------
1	1	0	0	0	0	0	
2	1	6	2	3	28	13	
	2	9	2	3	24	12	
	3	12	2	3	22	11	
	4	15	2	3	17	11	
	5	21	2	2	14	10	
	6	22	2	2	14	9	
	7	25	2	2	9	9	
	8	26	2	1	7	7	
	9	30	2	1	3	7	
3	1	2	5	3	16	15	
	2	3	5	3	15	14	
	3	6	5	3	13	14	
	4	12	5	3	13	13	
	5	14	5	3	11	14	
	6	15	5	2	10	14	
	7	20	5	2	9	14	
	8	22	5	2	8	14	
	9	23	5	2	7	14	
4	1	3	2	3	27	18	
	2	4	2	3	27	16	
	3	5	2	3	25	13	
	4	8	2	3	25	12	
	5	17	2	3	23	9	
	6	18	2	3	22	8	
	7	19	2	3	22	7	
	8	23	2	3	21	4	
	9	24	2	3	20	3	
5	1	4	2	3	28	21	
	2	5	2	3	25	21	
	3	7	2	3	25	20	
	4	9	2	3	22	17	
	5	11	2	2	20	16	
	6	22	2	2	20	15	
	7	24	2	2	19	13	
	8	25	2	1	16	11	
	9	26	2	1	14	10	
6	1	1	1	4	20	20	
	2	10	1	4	19	19	
	3	12	1	4	19	18	
	4	17	1	4	17	19	
	5	18	1	3	17	19	
	6	19	1	3	15	18	
	7	26	1	3	15	17	
	8	27	1	3	13	18	
	9	29	1	3	12	18	
7	1	1	4	2	22	17	
	2	4	3	2	19	16	
	3	5	3	2	18	13	
	4	11	3	2	17	12	
	5	15	3	2	12	10	
	6	21	3	2	11	7	
	7	23	3	2	7	6	
	8	24	3	2	5	3	
	9	28	3	2	3	2	
8	1	3	4	3	24	10	
	2	6	3	3	20	9	
	3	7	3	3	20	8	
	4	9	2	3	16	8	
	5	15	2	3	14	7	
	6	18	2	3	13	6	
	7	19	2	3	10	5	
	8	24	1	3	10	4	
	9	28	1	3	6	4	
9	1	4	5	2	16	16	
	2	13	4	1	16	16	
	3	15	4	1	15	15	
	4	16	4	1	13	14	
	5	17	4	1	13	13	
	6	21	3	1	11	11	
	7	27	3	1	11	10	
	8	28	3	1	9	10	
	9	29	3	1	9	8	
10	1	4	5	4	8	29	
	2	7	4	4	8	26	
	3	11	4	4	8	24	
	4	12	3	4	7	18	
	5	22	3	4	7	17	
	6	24	3	4	6	14	
	7	27	2	4	5	10	
	8	28	2	4	5	9	
	9	29	2	4	5	4	
11	1	7	3	4	26	20	
	2	8	3	4	26	18	
	3	10	3	4	26	17	
	4	13	3	4	26	16	
	5	14	3	4	25	16	
	6	16	3	4	25	14	
	7	19	3	4	25	13	
	8	20	3	4	25	12	
	9	29	3	4	25	11	
12	1	8	3	3	13	13	
	2	13	2	2	13	12	
	3	18	2	2	13	11	
	4	19	2	2	13	10	
	5	20	1	1	13	9	
	6	23	1	1	13	8	
	7	25	1	1	13	7	
	8	28	1	1	13	6	
	9	30	1	1	13	5	
13	1	2	2	5	18	29	
	2	4	2	4	15	26	
	3	5	2	4	14	26	
	4	13	2	4	11	23	
	5	17	2	4	9	23	
	6	24	1	4	8	22	
	7	25	1	4	7	19	
	8	26	1	4	4	18	
	9	27	1	4	1	16	
14	1	1	2	5	17	25	
	2	3	2	5	16	22	
	3	5	2	5	15	21	
	4	8	2	5	14	21	
	5	12	2	5	13	19	
	6	16	2	5	13	17	
	7	20	2	5	11	17	
	8	23	2	5	10	16	
	9	27	2	5	10	14	
15	1	5	5	2	19	25	
	2	7	5	2	19	23	
	3	10	5	2	17	21	
	4	13	5	2	13	20	
	5	15	5	2	13	19	
	6	16	5	2	10	16	
	7	20	5	2	7	16	
	8	27	5	2	5	13	
	9	30	5	2	5	11	
16	1	10	4	4	10	25	
	2	16	4	4	10	24	
	3	17	4	4	10	23	
	4	21	4	3	10	22	
	5	22	3	3	10	22	
	6	23	3	2	9	22	
	7	24	3	1	9	20	
	8	25	3	1	9	19	
	9	30	3	1	9	18	
17	1	6	5	3	21	23	
	2	7	4	3	19	21	
	3	8	4	3	19	19	
	4	13	3	2	19	17	
	5	19	3	2	17	13	
	6	20	3	2	17	12	
	7	21	3	1	16	10	
	8	23	2	1	16	9	
	9	25	2	1	15	6	
18	1	4	4	4	28	28	
	2	7	4	4	24	27	
	3	11	3	3	24	27	
	4	12	3	3	21	27	
	5	17	2	2	20	26	
	6	19	2	2	19	26	
	7	21	2	1	17	26	
	8	23	1	1	15	25	
	9	26	1	1	15	24	
19	1	9	3	3	20	11	
	2	10	3	3	20	9	
	3	11	3	3	16	9	
	4	19	3	3	15	8	
	5	21	2	3	14	8	
	6	22	2	3	12	7	
	7	26	1	3	8	6	
	8	27	1	3	7	5	
	9	28	1	3	6	5	
20	1	6	5	5	30	4	
	2	7	4	5	25	4	
	3	12	3	5	21	4	
	4	13	3	5	20	4	
	5	14	2	5	18	4	
	6	25	2	5	12	4	
	7	26	1	5	11	4	
	8	28	1	5	9	4	
	9	29	1	5	6	4	
21	1	5	5	4	15	24	
	2	6	4	3	12	24	
	3	12	4	3	12	21	
	4	14	4	3	10	17	
	5	17	3	3	9	17	
	6	22	3	2	8	13	
	7	25	3	2	5	11	
	8	28	3	2	4	10	
	9	30	3	2	2	7	
22	1	4	4	2	17	29	
	2	12	4	2	15	23	
	3	13	4	2	14	21	
	4	14	3	2	12	17	
	5	15	3	1	9	17	
	6	16	3	1	8	14	
	7	20	2	1	6	11	
	8	22	2	1	5	7	
	9	27	2	1	4	6	
23	1	10	4	4	24	29	
	2	11	3	4	21	28	
	3	12	3	3	19	28	
	4	13	3	3	17	28	
	5	14	2	3	16	28	
	6	17	2	2	15	28	
	7	24	2	2	12	28	
	8	27	2	1	11	28	
	9	30	2	1	9	28	
24	1	3	4	3	29	27	
	2	4	4	3	27	24	
	3	6	4	3	26	23	
	4	9	4	3	26	20	
	5	12	3	3	23	20	
	6	14	3	3	23	17	
	7	25	3	3	22	14	
	8	26	2	3	21	14	
	9	27	2	3	20	12	
25	1	3	4	4	21	13	
	2	5	4	4	20	12	
	3	13	4	4	16	11	
	4	15	4	3	16	10	
	5	16	4	2	14	9	
	6	17	4	2	12	9	
	7	22	4	2	11	8	
	8	27	4	1	9	7	
	9	28	4	1	7	6	
26	1	1	4	3	30	19	
	2	2	3	2	29	16	
	3	7	3	2	27	15	
	4	8	3	2	27	13	
	5	9	3	2	26	12	
	6	10	2	2	25	10	
	7	11	2	2	25	8	
	8	12	2	2	24	4	
	9	19	2	2	23	4	
27	1	5	3	5	23	21	
	2	8	3	4	22	20	
	3	10	3	4	20	20	
	4	12	3	4	19	20	
	5	14	3	3	18	20	
	6	16	3	3	16	20	
	7	19	3	2	13	20	
	8	20	3	2	12	20	
	9	25	3	2	11	20	
28	1	4	3	2	22	26	
	2	5	3	1	18	26	
	3	6	3	1	15	26	
	4	7	2	1	13	26	
	5	14	2	1	12	25	
	6	15	2	1	9	25	
	7	16	1	1	7	25	
	8	17	1	1	4	25	
	9	29	1	1	3	25	
29	1	2	2	2	24	9	
	2	4	2	2	23	8	
	3	9	2	2	22	7	
	4	12	2	2	20	7	
	5	14	2	2	20	5	
	6	16	2	2	18	5	
	7	17	2	2	17	5	
	8	22	2	2	16	4	
	9	25	2	2	16	3	
30	1	8	3	5	26	14	
	2	10	3	4	22	14	
	3	12	3	4	19	13	
	4	16	3	3	18	13	
	5	19	3	3	13	13	
	6	20	2	3	12	12	
	7	25	2	2	8	11	
	8	27	2	2	4	11	
	9	30	2	2	1	11	
31	1	7	1	2	22	2	
	2	9	1	1	19	2	
	3	11	1	1	18	2	
	4	13	1	1	17	2	
	5	17	1	1	16	2	
	6	18	1	1	14	2	
	7	19	1	1	13	2	
	8	27	1	1	12	2	
	9	29	1	1	11	2	
32	1	1	4	4	13	29	
	2	8	4	4	12	28	
	3	9	4	4	12	27	
	4	11	4	4	11	27	
	5	12	4	3	10	26	
	6	13	4	3	9	25	
	7	15	4	3	9	23	
	8	27	4	2	7	22	
	9	29	4	2	7	21	
33	1	4	3	5	13	19	
	2	7	2	4	13	19	
	3	8	2	3	13	15	
	4	12	2	3	13	14	
	5	18	2	3	12	12	
	6	19	2	2	12	10	
	7	21	2	2	12	8	
	8	26	2	1	12	6	
	9	28	2	1	12	4	
34	1	10	3	3	21	26	
	2	11	3	3	19	24	
	3	12	3	3	18	22	
	4	13	3	3	15	19	
	5	16	2	3	13	18	
	6	23	2	3	12	15	
	7	24	1	3	10	14	
	8	26	1	3	10	12	
	9	28	1	3	9	10	
35	1	5	3	3	24	23	
	2	6	3	3	22	23	
	3	7	3	3	21	22	
	4	8	3	3	20	20	
	5	9	3	3	19	20	
	6	14	3	3	19	19	
	7	24	3	3	18	18	
	8	25	3	3	16	17	
	9	26	3	3	15	17	
36	1	2	5	5	29	18	
	2	13	4	5	29	16	
	3	14	4	5	28	16	
	4	20	4	5	26	16	
	5	21	4	5	25	15	
	6	22	3	5	25	14	
	7	25	3	5	24	13	
	8	27	3	5	23	12	
	9	29	3	5	22	12	
37	1	10	4	5	22	24	
	2	11	4	5	21	22	
	3	12	4	5	20	20	
	4	14	4	5	19	16	
	5	15	4	5	17	16	
	6	18	4	5	15	14	
	7	21	4	5	13	12	
	8	23	4	5	11	9	
	9	25	4	5	11	8	
38	1	1	5	3	13	26	
	2	7	4	3	13	26	
	3	21	4	3	13	25	
	4	23	4	3	13	23	
	5	24	4	3	12	23	
	6	26	4	2	12	22	
	7	27	4	2	12	21	
	8	28	4	2	12	20	
	9	29	4	2	12	19	
39	1	3	3	3	20	18	
	2	4	3	3	20	15	
	3	5	3	3	19	14	
	4	8	3	3	18	13	
	5	9	2	3	17	10	
	6	14	2	3	17	9	
	7	22	1	3	17	8	
	8	23	1	3	16	4	
	9	29	1	3	15	4	
40	1	6	4	3	24	2	
	2	10	4	2	23	2	
	3	12	4	2	20	2	
	4	19	4	2	17	2	
	5	21	4	2	17	1	
	6	22	4	2	13	1	
	7	23	4	2	11	2	
	8	27	4	2	11	1	
	9	28	4	2	7	1	
41	1	8	4	5	8	11	
	2	10	3	4	8	9	
	3	13	3	4	7	7	
	4	14	2	4	7	7	
	5	15	2	4	7	5	
	6	16	2	4	6	5	
	7	17	1	4	5	3	
	8	22	1	4	5	2	
	9	26	1	4	5	1	
42	1	6	5	5	24	12	
	2	17	4	4	23	12	
	3	18	4	4	22	12	
	4	25	4	4	18	11	
	5	26	4	3	17	11	
	6	27	3	3	15	11	
	7	28	3	3	13	10	
	8	29	3	3	11	10	
	9	30	3	3	8	10	
43	1	3	4	3	27	15	
	2	9	4	2	27	14	
	3	17	4	2	27	13	
	4	19	4	2	27	12	
	5	21	3	2	27	10	
	6	22	3	2	26	8	
	7	23	2	2	26	8	
	8	24	2	2	26	5	
	9	27	2	2	26	4	
44	1	2	4	4	20	5	
	2	3	4	3	19	5	
	3	9	4	3	17	5	
	4	11	4	3	15	5	
	5	15	3	3	14	4	
	6	16	3	2	11	4	
	7	17	3	2	11	3	
	8	20	2	2	10	4	
	9	28	2	2	8	4	
45	1	3	3	4	3	25	
	2	9	3	4	3	24	
	3	10	3	4	3	23	
	4	14	3	4	2	23	
	5	18	2	4	2	21	
	6	20	2	4	2	20	
	7	21	1	4	1	18	
	8	23	1	4	1	17	
	9	28	1	4	1	16	
46	1	2	2	1	19	29	
	2	4	2	1	18	29	
	3	7	2	1	18	28	
	4	15	2	1	18	27	
	5	16	1	1	17	29	
	6	20	1	1	17	28	
	7	21	1	1	17	27	
	8	27	1	1	17	26	
	9	30	1	1	17	25	
47	1	1	3	3	26	28	
	2	2	2	3	24	23	
	3	8	2	3	23	22	
	4	12	2	3	20	16	
	5	15	2	2	19	14	
	6	18	2	2	16	10	
	7	19	2	1	14	9	
	8	26	2	1	14	7	
	9	28	2	1	12	3	
48	1	1	4	2	19	23	
	2	4	4	2	18	22	
	3	6	4	2	18	20	
	4	8	4	2	18	19	
	5	10	3	2	17	19	
	6	11	3	2	17	17	
	7	20	2	2	17	17	
	8	26	2	2	16	16	
	9	30	2	2	16	15	
49	1	3	5	3	25	24	
	2	6	4	3	23	20	
	3	10	4	3	19	19	
	4	16	4	2	17	16	
	5	17	3	2	15	16	
	6	19	3	2	12	14	
	7	23	3	1	9	12	
	8	24	3	1	8	8	
	9	26	3	1	4	7	
50	1	1	4	4	12	17	
	2	2	3	3	11	15	
	3	5	3	3	11	14	
	4	9	3	3	11	13	
	5	12	3	2	11	12	
	6	21	3	2	11	11	
	7	26	3	2	11	10	
	8	29	3	2	11	9	
	9	30	3	2	11	8	
51	1	1	5	4	28	8	
	2	5	5	4	28	7	
	3	12	5	4	27	7	
	4	13	5	3	25	7	
	5	14	5	2	25	6	
	6	17	5	2	24	5	
	7	22	5	1	24	5	
	8	28	5	1	23	4	
	9	29	5	1	22	4	
52	1	0	0	0	0	0	
************************************************************************

 RESOURCE AVAILABILITIES 
	R 1	R 2	N 1	N 2
	21	20	782	734

************************************************************************
